c 1390 z 1600
1251	1440
69	60
278	320
69	60
414	360
973	1120
690	600
69	60
1112	1280
690	600
695	800
483	420
69	60
69	60
417	480
139	160
207	180
621	540
276	240
69	60
695	800
345	300
690	600
1112	1280
556	640
414	360
345	300
1251	1440
556	640
695	800
556	640
483	420
690	600
556	640
834	960
483	420
556	640
621	540
834	960
138	120
139	160
1251	1440
556	640
552	480
690	600
1251	1440
276	240
690	600
1390	1600
690	600